mixintcount/benchmarks/random_v2l/3_3_562.smt2
(set-logic QF_LIA)
(set-info :ran/ran2.smt2)
(set-info :smt-lib-version 2.0)
(declare-fun x1 () Int)
(declare-fun x2 () Int)
(declare-fun x3 () Int)
(assert (<= (+ (* (- 8) x1) (* 6 x2) (* 5 x3) ) (- 269)))
(assert (<= (+ (* (- 3) x1) (* (- 6) x2) (* (- 5) x3) ) 24))
(assert (<= (+ (* 3 x1) (* (- 10) x2) (* (- 10) x3) ) 157))
(assert (<= (+ (* 1 x1) (* (- 6) x2) (* (- 8) x3) ) 244))
(assert (<= (+ (* 0 x1) (* (- 8) x2) (* 4 x3) ) 175))
(assert (<= (+ (* 5 x1) (* (- 1) x2) (* 7 x3) ) (- 231)))
(assert (<= (+ (* 1 x1) (* 0 x2) (* 0 x3) ) 562))
(assert (<= (+ (* (- 1) x1) (* 0 x2) (* 0 x3) ) 562))
(assert (<= (+ (* 0 x1) (* 1 x2) (* 0 x3) ) 562))
(assert (<= (+ (* 0 x1) (* (- 1) x2) (* 0 x3) ) 562))
(assert (<= (+ (* 0 x1) (* 0 x2) (* 1 x3) ) 562))
(assert (<= (+ (* 0 x1) (* 0 x2) (* (- 1) x3) ) 562))
