mixintcount/benchmarks/random_v2l/3_3_562.in
12 5
#	x1	x2	x3;		0 = Real; 1 = Integer
	1	1	1
1	-8	6	5	-269
1	-3	-6	-5	24
1	3	-10	-10	157
1	1	-6	-8	244
1	0	-8	4	175
1	5	-1	7	-231
1	1	0	0	562
1	-1	0	0	562
1	0	1	0	562
1	0	-1	0	562
1	0	0	1	562
1	0	0	-1	562
